data;

param w := 21;
param n := 15;
param min_h := 21;
param max_h := 33;

set BLOCKS := 1 2 3 4 5 6 7 8 9 10 11 12 13 14 15 ;

param:	width	height :=
	1	5	15
	2	3	18
	3	4	11
	4	3	14
	5	5	6
	6	3	10
	7	3	9
	8	4	6
	9	3	8
	10	3	7
	11	3	6
	12	4	4
	13	3	5
	14	3	4
	15	3	3;